problems/csplib-prob013/ProgressivePartyProblem-models/noch/O2/lingeling/model_3_1-Ian10-solution000001.eprime-solution
language ESSENCE' 1.0

letting aux1_Occurrence be
        [[false, true, false, false, true, true, true, false, false, false, false, false, true, false; int(1..14)],
         [false, true, false, false, true, true, true, false, false, false, false, false, true, false; int(1..14)],
         [false, true, false, false, true, true, true, false, false, false, false, false, true, false; int(1..14)],
         [false, true, false, false, true, true, true, false, false, false, false, false, true, false; int(1..14)],
         [false, true, false, false, true, true, true, false, false, false, false, false, true,
          false; int(1..14)]; int(1..5)]
letting hosts_ExplicitVarSizeWithMarker_Marker be 5
letting hosts_ExplicitVarSizeWithMarker_Values be [2, 5, 6, 7, 13, 1, 1, 1, 1, 1, 1, 1, 1, 1; int(1..14)]
letting sched_ExplicitR9_Function1D be
        [[2, 2, 7, 13, 5, 6, 7, 7, 2, 5, 6, 6, 13, 13; int(1..14)],
         [5, 2, 5, 5, 5, 6, 7, 6, 13, 6, 13, 7, 13, 2; int(1..14)],
         [6, 2, 13, 2, 5, 6, 7, 2, 7, 13, 2, 5, 13, 5; int(1..14)],
         [7, 2, 2, 6, 5, 6, 7, 5, 5, 7, 7, 13, 13, 7; int(1..14)],
         [13, 2, 6, 7, 5, 6, 7, 13, 6, 2, 5, 2, 13, 6; int(1..14)]; int(1..5)]
